
;this file is automatically generated: Tue Mar 02 15:25:56 CST 2021

;declarations generated

(declare-fun oclExcludes ( Int Int) Bool)
(declare-fun class8_Class8IntAttr4 ( Int) Int)
(declare-fun class8_Class8IntAttr3 ( Int) Int)
(declare-fun Cardinality ( Int) Int)
(declare-fun obj_cde6fc98_0078_4385_838a_fc31f0df8e9c ( Int) Int)
(declare-fun type_bf34e10e_752a_4499_9281_9e5783b974d5_Class1 ( Int) Bool)
(declare-fun type_bf34e10e_752a_4499_9281_9e5783b974d5_Class2 ( Int) Bool)
(declare-fun type_bf34e10e_752a_4499_9281_9e5783b974d5_Class0 ( Int) Bool)
(declare-fun oclSelect ( Int Bool) Int)
(declare-fun type_bf34e10e_752a_4499_9281_9e5783b974d5_Class9 ( Int) Bool)
(declare-fun type_bf34e10e_752a_4499_9281_9e5783b974d5_Class7 ( Int) Bool)
(declare-fun type_bf34e10e_752a_4499_9281_9e5783b974d5_Class8 ( Int) Bool)
(declare-fun type_bf34e10e_752a_4499_9281_9e5783b974d5_Class5 ( Int) Bool)
(declare-fun type_bf34e10e_752a_4499_9281_9e5783b974d5_Class6 ( Int) Bool)
(declare-fun type_bf34e10e_752a_4499_9281_9e5783b974d5_Class3 ( Int) Bool)
(declare-fun type_bf34e10e_752a_4499_9281_9e5783b974d5_Class4 ( Int) Bool)
(declare-fun type_bf34e10e_752a_4499_9281_9e5783b974d5_Class16 ( Int) Bool)
(declare-fun type_bf34e10e_752a_4499_9281_9e5783b974d5_Class17 ( Int) Bool)
(declare-fun type_bf34e10e_752a_4499_9281_9e5783b974d5_Class18 ( Int) Bool)
(declare-fun type_bf34e10e_752a_4499_9281_9e5783b974d5_Class19 ( Int) Bool)
(declare-fun type_bf34e10e_752a_4499_9281_9e5783b974d5_Class12 ( Int) Bool)
(declare-fun type_bf34e10e_752a_4499_9281_9e5783b974d5_Class13 ( Int) Bool)
(declare-fun type_bf34e10e_752a_4499_9281_9e5783b974d5_Class14 ( Int) Bool)
(declare-fun type_bf34e10e_752a_4499_9281_9e5783b974d5_Class15 ( Int) Bool)
(declare-fun type_bf34e10e_752a_4499_9281_9e5783b974d5_Class10 ( Int) Bool)
(declare-fun Enum0 ( Int) Int)
(declare-fun type_bf34e10e_752a_4499_9281_9e5783b974d5_Class11 ( Int) Bool)
(declare-fun Enum1 ( Int) Int)
(declare-fun Enum2 ( Int) Int)
(declare-fun container_ ( Int) Int)
(declare-fun type_bf34e10e_752a_4499_9281_9e5783b974d5_Class49 ( Int) Bool)
(declare-fun type_bf34e10e_752a_4499_9281_9e5783b974d5_Class45 ( Int) Bool)
(declare-fun type_bf34e10e_752a_4499_9281_9e5783b974d5_Class46 ( Int) Bool)
(declare-fun type_bf34e10e_752a_4499_9281_9e5783b974d5_Class47 ( Int) Bool)
(declare-fun type_bf34e10e_752a_4499_9281_9e5783b974d5_Class48 ( Int) Bool)
(declare-fun type_bf34e10e_752a_4499_9281_9e5783b974d5_Class41 ( Int) Bool)
(declare-fun type_bf34e10e_752a_4499_9281_9e5783b974d5_Class42 ( Int) Bool)
(declare-fun type_bf34e10e_752a_4499_9281_9e5783b974d5_Class43 ( Int) Bool)
(declare-fun type_bf34e10e_752a_4499_9281_9e5783b974d5_Class44 ( Int) Bool)
(declare-fun type_bf34e10e_752a_4499_9281_9e5783b974d5_Class40 ( Int) Bool)
(declare-fun oclIncludes ( Int Int) Bool)
(declare-fun type_bf34e10e_752a_4499_9281_9e5783b974d5_Class52 ( Int) Bool)
(declare-fun type_bf34e10e_752a_4499_9281_9e5783b974d5_Class53 ( Int) Bool)
(declare-fun type_bf34e10e_752a_4499_9281_9e5783b974d5_Class54 ( Int) Bool)
(declare-fun type_bf34e10e_752a_4499_9281_9e5783b974d5_Class55 ( Int) Bool)
(declare-fun type_bf34e10e_752a_4499_9281_9e5783b974d5_Class50 ( Int) Bool)
(declare-fun type_bf34e10e_752a_4499_9281_9e5783b974d5_Class51 ( Int) Bool)
(declare-fun type_bf34e10e_752a_4499_9281_9e5783b974d5_Class27 ( Int) Bool)
(declare-fun type_bf34e10e_752a_4499_9281_9e5783b974d5_Class28 ( Int) Bool)
(declare-fun type_bf34e10e_752a_4499_9281_9e5783b974d5_Class29 ( Int) Bool)
(declare-fun type_bf34e10e_752a_4499_9281_9e5783b974d5_Class23 ( Int) Bool)
(declare-fun type_bf34e10e_752a_4499_9281_9e5783b974d5_Class24 ( Int) Bool)
(declare-fun type_bf34e10e_752a_4499_9281_9e5783b974d5_Class25 ( Int) Bool)
(declare-fun type_bf34e10e_752a_4499_9281_9e5783b974d5_Class26 ( Int) Bool)
(declare-fun type_bf34e10e_752a_4499_9281_9e5783b974d5_Class20 ( Int) Bool)
(declare-fun type_bf34e10e_752a_4499_9281_9e5783b974d5_Class21 ( Int) Bool)
(declare-fun type_bf34e10e_752a_4499_9281_9e5783b974d5_Class22 ( Int) Bool)
(declare-fun type_bf34e10e_752a_4499_9281_9e5783b974d5_Class38 ( Int) Bool)
(declare-fun type_bf34e10e_752a_4499_9281_9e5783b974d5_Class39 ( Int) Bool)
(declare-fun type_bf34e10e_752a_4499_9281_9e5783b974d5_Class34 ( Int) Bool)
(declare-fun type_bf34e10e_752a_4499_9281_9e5783b974d5_Class35 ( Int) Bool)
(declare-fun type_bf34e10e_752a_4499_9281_9e5783b974d5_Class36 ( Int) Bool)
(declare-fun type_bf34e10e_752a_4499_9281_9e5783b974d5_Class37 ( Int) Bool)
(declare-fun type_bf34e10e_752a_4499_9281_9e5783b974d5_Class30 ( Int) Bool)
(declare-fun ObjAt ( Int Int) Int)
(declare-fun type_bf34e10e_752a_4499_9281_9e5783b974d5_Class31 ( Int) Bool)
(declare-fun type_bf34e10e_752a_4499_9281_9e5783b974d5_Class32 ( Int) Bool)
(declare-fun type_bf34e10e_752a_4499_9281_9e5783b974d5_Class33 ( Int) Bool)

;formula(s) generated
(assert (! (forall ((c8_2 Int)(c8_1 Int)) (=> (and (and ( type_bf34e10e_752a_4499_9281_9e5783b974d5_Class8 c8_1 )  ( type_bf34e10e_752a_4499_9281_9e5783b974d5_Class39 c8_1 ) ) (and ( type_bf34e10e_752a_4499_9281_9e5783b974d5_Class8 c8_2 )  ( type_bf34e10e_752a_4499_9281_9e5783b974d5_Class39 c8_2 ) )) (= ( class8_Class8IntAttr4 ( obj_cde6fc98_0078_4385_838a_fc31f0df8e9c c8_1 )  )  ( class8_Class8IntAttr3 ( obj_cde6fc98_0078_4385_838a_fc31f0df8e9c c8_2 )  ) ))):named l0))
(assert (! (exists ((c1 Int)) (and (and ( type_bf34e10e_752a_4499_9281_9e5783b974d5_Class8 c1 )  ( type_bf34e10e_752a_4499_9281_9e5783b974d5_Class39 c1 ) ) (<= ( class8_Class8IntAttr4 ( obj_cde6fc98_0078_4385_838a_fc31f0df8e9c c1 )  )  18))):named l1))
(assert (! (exists ((c1 Int)) (and (and ( type_bf34e10e_752a_4499_9281_9e5783b974d5_Class8 c1 )  ( type_bf34e10e_752a_4499_9281_9e5783b974d5_Class39 c1 ) ) (> ( class8_Class8IntAttr4 ( obj_cde6fc98_0078_4385_838a_fc31f0df8e9c c1 )  )  1))):named l2))
(assert (! (forall ((c8_2 Int)(c8_1 Int)) (=> (and (and ( type_bf34e10e_752a_4499_9281_9e5783b974d5_Class8 c8_1 )  ( type_bf34e10e_752a_4499_9281_9e5783b974d5_Class39 c8_1 ) ) (and ( type_bf34e10e_752a_4499_9281_9e5783b974d5_Class8 c8_2 )  ( type_bf34e10e_752a_4499_9281_9e5783b974d5_Class39 c8_2 ) )) (<= ( class8_Class8IntAttr3 ( obj_cde6fc98_0078_4385_838a_fc31f0df8e9c c8_1 )  )  ( class8_Class8IntAttr4 ( obj_cde6fc98_0078_4385_838a_fc31f0df8e9c c8_2 )  ) ))):named l3))
(assert (! (exists ((o Int)) ( type_bf34e10e_752a_4499_9281_9e5783b974d5_Class0 ( obj_cde6fc98_0078_4385_838a_fc31f0df8e9c o )  ) ):named c0))
(assert (! (exists ((o Int)) (and (and (and (and (and ( type_bf34e10e_752a_4499_9281_9e5783b974d5_Class1 ( obj_cde6fc98_0078_4385_838a_fc31f0df8e9c o )  )  ( type_bf34e10e_752a_4499_9281_9e5783b974d5_Class45 ( obj_cde6fc98_0078_4385_838a_fc31f0df8e9c o )  ) ) ( type_bf34e10e_752a_4499_9281_9e5783b974d5_Class12 ( obj_cde6fc98_0078_4385_838a_fc31f0df8e9c o )  ) ) ( type_bf34e10e_752a_4499_9281_9e5783b974d5_Class33 ( obj_cde6fc98_0078_4385_838a_fc31f0df8e9c o )  ) ) ( type_bf34e10e_752a_4499_9281_9e5783b974d5_Class22 ( obj_cde6fc98_0078_4385_838a_fc31f0df8e9c o )  ) ) ( type_bf34e10e_752a_4499_9281_9e5783b974d5_Class39 ( obj_cde6fc98_0078_4385_838a_fc31f0df8e9c o )  ) )):named c1))
(assert (! (exists ((o Int)) (and (and (and (and (and (and (and (and (and ( type_bf34e10e_752a_4499_9281_9e5783b974d5_Class10 ( obj_cde6fc98_0078_4385_838a_fc31f0df8e9c o )  )  ( type_bf34e10e_752a_4499_9281_9e5783b974d5_Class45 ( obj_cde6fc98_0078_4385_838a_fc31f0df8e9c o )  ) ) ( type_bf34e10e_752a_4499_9281_9e5783b974d5_Class12 ( obj_cde6fc98_0078_4385_838a_fc31f0df8e9c o )  ) ) ( type_bf34e10e_752a_4499_9281_9e5783b974d5_Class55 ( obj_cde6fc98_0078_4385_838a_fc31f0df8e9c o )  ) ) ( type_bf34e10e_752a_4499_9281_9e5783b974d5_Class33 ( obj_cde6fc98_0078_4385_838a_fc31f0df8e9c o )  ) ) ( type_bf34e10e_752a_4499_9281_9e5783b974d5_Class22 ( obj_cde6fc98_0078_4385_838a_fc31f0df8e9c o )  ) ) ( type_bf34e10e_752a_4499_9281_9e5783b974d5_Class29 ( obj_cde6fc98_0078_4385_838a_fc31f0df8e9c o )  ) ) ( type_bf34e10e_752a_4499_9281_9e5783b974d5_Class39 ( obj_cde6fc98_0078_4385_838a_fc31f0df8e9c o )  ) ) ( type_bf34e10e_752a_4499_9281_9e5783b974d5_Class50 ( obj_cde6fc98_0078_4385_838a_fc31f0df8e9c o )  ) ) ( type_bf34e10e_752a_4499_9281_9e5783b974d5_Class41 ( obj_cde6fc98_0078_4385_838a_fc31f0df8e9c o )  ) )):named c2))
(assert (! (exists ((o Int)) ( type_bf34e10e_752a_4499_9281_9e5783b974d5_Class11 ( obj_cde6fc98_0078_4385_838a_fc31f0df8e9c o )  ) ):named c3))
(assert (! (exists ((o Int)) (and (and (and ( type_bf34e10e_752a_4499_9281_9e5783b974d5_Class12 ( obj_cde6fc98_0078_4385_838a_fc31f0df8e9c o )  )  ( type_bf34e10e_752a_4499_9281_9e5783b974d5_Class33 ( obj_cde6fc98_0078_4385_838a_fc31f0df8e9c o )  ) ) ( type_bf34e10e_752a_4499_9281_9e5783b974d5_Class22 ( obj_cde6fc98_0078_4385_838a_fc31f0df8e9c o )  ) ) ( type_bf34e10e_752a_4499_9281_9e5783b974d5_Class39 ( obj_cde6fc98_0078_4385_838a_fc31f0df8e9c o )  ) )):named c4))
(assert (! (exists ((o Int)) (and (and (and (and (and (and (and (and (and ( type_bf34e10e_752a_4499_9281_9e5783b974d5_Class13 ( obj_cde6fc98_0078_4385_838a_fc31f0df8e9c o )  )  ( type_bf34e10e_752a_4499_9281_9e5783b974d5_Class45 ( obj_cde6fc98_0078_4385_838a_fc31f0df8e9c o )  ) ) ( type_bf34e10e_752a_4499_9281_9e5783b974d5_Class12 ( obj_cde6fc98_0078_4385_838a_fc31f0df8e9c o )  ) ) ( type_bf34e10e_752a_4499_9281_9e5783b974d5_Class55 ( obj_cde6fc98_0078_4385_838a_fc31f0df8e9c o )  ) ) ( type_bf34e10e_752a_4499_9281_9e5783b974d5_Class33 ( obj_cde6fc98_0078_4385_838a_fc31f0df8e9c o )  ) ) ( type_bf34e10e_752a_4499_9281_9e5783b974d5_Class22 ( obj_cde6fc98_0078_4385_838a_fc31f0df8e9c o )  ) ) ( type_bf34e10e_752a_4499_9281_9e5783b974d5_Class29 ( obj_cde6fc98_0078_4385_838a_fc31f0df8e9c o )  ) ) ( type_bf34e10e_752a_4499_9281_9e5783b974d5_Class39 ( obj_cde6fc98_0078_4385_838a_fc31f0df8e9c o )  ) ) ( type_bf34e10e_752a_4499_9281_9e5783b974d5_Class50 ( obj_cde6fc98_0078_4385_838a_fc31f0df8e9c o )  ) ) ( type_bf34e10e_752a_4499_9281_9e5783b974d5_Class41 ( obj_cde6fc98_0078_4385_838a_fc31f0df8e9c o )  ) )):named c5))
(assert (! (exists ((o Int)) (and (and (and (and (and (and (and (and (and ( type_bf34e10e_752a_4499_9281_9e5783b974d5_Class14 ( obj_cde6fc98_0078_4385_838a_fc31f0df8e9c o )  )  ( type_bf34e10e_752a_4499_9281_9e5783b974d5_Class45 ( obj_cde6fc98_0078_4385_838a_fc31f0df8e9c o )  ) ) ( type_bf34e10e_752a_4499_9281_9e5783b974d5_Class12 ( obj_cde6fc98_0078_4385_838a_fc31f0df8e9c o )  ) ) ( type_bf34e10e_752a_4499_9281_9e5783b974d5_Class55 ( obj_cde6fc98_0078_4385_838a_fc31f0df8e9c o )  ) ) ( type_bf34e10e_752a_4499_9281_9e5783b974d5_Class33 ( obj_cde6fc98_0078_4385_838a_fc31f0df8e9c o )  ) ) ( type_bf34e10e_752a_4499_9281_9e5783b974d5_Class22 ( obj_cde6fc98_0078_4385_838a_fc31f0df8e9c o )  ) ) ( type_bf34e10e_752a_4499_9281_9e5783b974d5_Class29 ( obj_cde6fc98_0078_4385_838a_fc31f0df8e9c o )  ) ) ( type_bf34e10e_752a_4499_9281_9e5783b974d5_Class39 ( obj_cde6fc98_0078_4385_838a_fc31f0df8e9c o )  ) ) ( type_bf34e10e_752a_4499_9281_9e5783b974d5_Class50 ( obj_cde6fc98_0078_4385_838a_fc31f0df8e9c o )  ) ) ( type_bf34e10e_752a_4499_9281_9e5783b974d5_Class41 ( obj_cde6fc98_0078_4385_838a_fc31f0df8e9c o )  ) )):named c6))
(assert (! (exists ((o Int)) ( type_bf34e10e_752a_4499_9281_9e5783b974d5_Class15 ( obj_cde6fc98_0078_4385_838a_fc31f0df8e9c o )  ) ):named c7))
(assert (! (exists ((o Int)) (and (and (and (and (and ( type_bf34e10e_752a_4499_9281_9e5783b974d5_Class16 ( obj_cde6fc98_0078_4385_838a_fc31f0df8e9c o )  )  ( type_bf34e10e_752a_4499_9281_9e5783b974d5_Class45 ( obj_cde6fc98_0078_4385_838a_fc31f0df8e9c o )  ) ) ( type_bf34e10e_752a_4499_9281_9e5783b974d5_Class12 ( obj_cde6fc98_0078_4385_838a_fc31f0df8e9c o )  ) ) ( type_bf34e10e_752a_4499_9281_9e5783b974d5_Class33 ( obj_cde6fc98_0078_4385_838a_fc31f0df8e9c o )  ) ) ( type_bf34e10e_752a_4499_9281_9e5783b974d5_Class22 ( obj_cde6fc98_0078_4385_838a_fc31f0df8e9c o )  ) ) ( type_bf34e10e_752a_4499_9281_9e5783b974d5_Class39 ( obj_cde6fc98_0078_4385_838a_fc31f0df8e9c o )  ) )):named c8))
(assert (! (exists ((o Int)) ( type_bf34e10e_752a_4499_9281_9e5783b974d5_Class17 ( obj_cde6fc98_0078_4385_838a_fc31f0df8e9c o )  ) ):named c9))
(assert (! (exists ((o Int)) (and (and (and ( type_bf34e10e_752a_4499_9281_9e5783b974d5_Class18 ( obj_cde6fc98_0078_4385_838a_fc31f0df8e9c o )  )  ( type_bf34e10e_752a_4499_9281_9e5783b974d5_Class25 ( obj_cde6fc98_0078_4385_838a_fc31f0df8e9c o )  ) ) ( type_bf34e10e_752a_4499_9281_9e5783b974d5_Class24 ( obj_cde6fc98_0078_4385_838a_fc31f0df8e9c o )  ) ) ( type_bf34e10e_752a_4499_9281_9e5783b974d5_Class39 ( obj_cde6fc98_0078_4385_838a_fc31f0df8e9c o )  ) )):named c10))
(assert (! (exists ((o Int)) (and (and (and (and (and (and (and (and (and ( type_bf34e10e_752a_4499_9281_9e5783b974d5_Class19 ( obj_cde6fc98_0078_4385_838a_fc31f0df8e9c o )  )  ( type_bf34e10e_752a_4499_9281_9e5783b974d5_Class45 ( obj_cde6fc98_0078_4385_838a_fc31f0df8e9c o )  ) ) ( type_bf34e10e_752a_4499_9281_9e5783b974d5_Class12 ( obj_cde6fc98_0078_4385_838a_fc31f0df8e9c o )  ) ) ( type_bf34e10e_752a_4499_9281_9e5783b974d5_Class55 ( obj_cde6fc98_0078_4385_838a_fc31f0df8e9c o )  ) ) ( type_bf34e10e_752a_4499_9281_9e5783b974d5_Class33 ( obj_cde6fc98_0078_4385_838a_fc31f0df8e9c o )  ) ) ( type_bf34e10e_752a_4499_9281_9e5783b974d5_Class22 ( obj_cde6fc98_0078_4385_838a_fc31f0df8e9c o )  ) ) ( type_bf34e10e_752a_4499_9281_9e5783b974d5_Class29 ( obj_cde6fc98_0078_4385_838a_fc31f0df8e9c o )  ) ) ( type_bf34e10e_752a_4499_9281_9e5783b974d5_Class39 ( obj_cde6fc98_0078_4385_838a_fc31f0df8e9c o )  ) ) ( type_bf34e10e_752a_4499_9281_9e5783b974d5_Class50 ( obj_cde6fc98_0078_4385_838a_fc31f0df8e9c o )  ) ) ( type_bf34e10e_752a_4499_9281_9e5783b974d5_Class41 ( obj_cde6fc98_0078_4385_838a_fc31f0df8e9c o )  ) )):named c11))
(assert (! (exists ((o Int)) ( type_bf34e10e_752a_4499_9281_9e5783b974d5_Class2 ( obj_cde6fc98_0078_4385_838a_fc31f0df8e9c o )  ) ):named c12))
(assert (! (exists ((o Int)) ( type_bf34e10e_752a_4499_9281_9e5783b974d5_Class20 ( obj_cde6fc98_0078_4385_838a_fc31f0df8e9c o )  ) ):named c13))
(assert (! (exists ((o Int)) (and (and (and (and (and (and (and (and (and ( type_bf34e10e_752a_4499_9281_9e5783b974d5_Class21 ( obj_cde6fc98_0078_4385_838a_fc31f0df8e9c o )  )  ( type_bf34e10e_752a_4499_9281_9e5783b974d5_Class45 ( obj_cde6fc98_0078_4385_838a_fc31f0df8e9c o )  ) ) ( type_bf34e10e_752a_4499_9281_9e5783b974d5_Class12 ( obj_cde6fc98_0078_4385_838a_fc31f0df8e9c o )  ) ) ( type_bf34e10e_752a_4499_9281_9e5783b974d5_Class33 ( obj_cde6fc98_0078_4385_838a_fc31f0df8e9c o )  ) ) ( type_bf34e10e_752a_4499_9281_9e5783b974d5_Class22 ( obj_cde6fc98_0078_4385_838a_fc31f0df8e9c o )  ) ) ( type_bf34e10e_752a_4499_9281_9e5783b974d5_Class16 ( obj_cde6fc98_0078_4385_838a_fc31f0df8e9c o )  ) ) ( type_bf34e10e_752a_4499_9281_9e5783b974d5_Class29 ( obj_cde6fc98_0078_4385_838a_fc31f0df8e9c o )  ) ) ( type_bf34e10e_752a_4499_9281_9e5783b974d5_Class39 ( obj_cde6fc98_0078_4385_838a_fc31f0df8e9c o )  ) ) ( type_bf34e10e_752a_4499_9281_9e5783b974d5_Class41 ( obj_cde6fc98_0078_4385_838a_fc31f0df8e9c o )  ) ) ( type_bf34e10e_752a_4499_9281_9e5783b974d5_Class51 ( obj_cde6fc98_0078_4385_838a_fc31f0df8e9c o )  ) )):named c14))
(assert (! (exists ((o Int)) (and ( type_bf34e10e_752a_4499_9281_9e5783b974d5_Class22 ( obj_cde6fc98_0078_4385_838a_fc31f0df8e9c o )  )  ( type_bf34e10e_752a_4499_9281_9e5783b974d5_Class39 ( obj_cde6fc98_0078_4385_838a_fc31f0df8e9c o )  ) )):named c15))
(assert (! (exists ((o Int)) (and (and (and (and ( type_bf34e10e_752a_4499_9281_9e5783b974d5_Class23 ( obj_cde6fc98_0078_4385_838a_fc31f0df8e9c o )  )  ( type_bf34e10e_752a_4499_9281_9e5783b974d5_Class25 ( obj_cde6fc98_0078_4385_838a_fc31f0df8e9c o )  ) ) ( type_bf34e10e_752a_4499_9281_9e5783b974d5_Class24 ( obj_cde6fc98_0078_4385_838a_fc31f0df8e9c o )  ) ) ( type_bf34e10e_752a_4499_9281_9e5783b974d5_Class39 ( obj_cde6fc98_0078_4385_838a_fc31f0df8e9c o )  ) ) ( type_bf34e10e_752a_4499_9281_9e5783b974d5_Class5 ( obj_cde6fc98_0078_4385_838a_fc31f0df8e9c o )  ) )):named c16))
(assert (! (exists ((o Int)) (and (and ( type_bf34e10e_752a_4499_9281_9e5783b974d5_Class24 ( obj_cde6fc98_0078_4385_838a_fc31f0df8e9c o )  )  ( type_bf34e10e_752a_4499_9281_9e5783b974d5_Class25 ( obj_cde6fc98_0078_4385_838a_fc31f0df8e9c o )  ) ) ( type_bf34e10e_752a_4499_9281_9e5783b974d5_Class39 ( obj_cde6fc98_0078_4385_838a_fc31f0df8e9c o )  ) )):named c17))
(assert (! (exists ((o Int)) (and ( type_bf34e10e_752a_4499_9281_9e5783b974d5_Class25 ( obj_cde6fc98_0078_4385_838a_fc31f0df8e9c o )  )  ( type_bf34e10e_752a_4499_9281_9e5783b974d5_Class39 ( obj_cde6fc98_0078_4385_838a_fc31f0df8e9c o )  ) )):named c18))
(assert (! (exists ((o Int)) ( type_bf34e10e_752a_4499_9281_9e5783b974d5_Class26 ( obj_cde6fc98_0078_4385_838a_fc31f0df8e9c o )  ) ):named c19))
(assert (! (exists ((o Int)) ( type_bf34e10e_752a_4499_9281_9e5783b974d5_Class27 ( obj_cde6fc98_0078_4385_838a_fc31f0df8e9c o )  ) ):named c20))
(assert (! (exists ((o Int)) (and (and (and (and (and (and (and ( type_bf34e10e_752a_4499_9281_9e5783b974d5_Class28 ( obj_cde6fc98_0078_4385_838a_fc31f0df8e9c o )  )  ( type_bf34e10e_752a_4499_9281_9e5783b974d5_Class45 ( obj_cde6fc98_0078_4385_838a_fc31f0df8e9c o )  ) ) ( type_bf34e10e_752a_4499_9281_9e5783b974d5_Class12 ( obj_cde6fc98_0078_4385_838a_fc31f0df8e9c o )  ) ) ( type_bf34e10e_752a_4499_9281_9e5783b974d5_Class33 ( obj_cde6fc98_0078_4385_838a_fc31f0df8e9c o )  ) ) ( type_bf34e10e_752a_4499_9281_9e5783b974d5_Class22 ( obj_cde6fc98_0078_4385_838a_fc31f0df8e9c o )  ) ) ( type_bf34e10e_752a_4499_9281_9e5783b974d5_Class29 ( obj_cde6fc98_0078_4385_838a_fc31f0df8e9c o )  ) ) ( type_bf34e10e_752a_4499_9281_9e5783b974d5_Class39 ( obj_cde6fc98_0078_4385_838a_fc31f0df8e9c o )  ) ) ( type_bf34e10e_752a_4499_9281_9e5783b974d5_Class41 ( obj_cde6fc98_0078_4385_838a_fc31f0df8e9c o )  ) )):named c21))
(assert (! (exists ((o Int)) (and (and (and (and (and (and ( type_bf34e10e_752a_4499_9281_9e5783b974d5_Class29 ( obj_cde6fc98_0078_4385_838a_fc31f0df8e9c o )  )  ( type_bf34e10e_752a_4499_9281_9e5783b974d5_Class45 ( obj_cde6fc98_0078_4385_838a_fc31f0df8e9c o )  ) ) ( type_bf34e10e_752a_4499_9281_9e5783b974d5_Class12 ( obj_cde6fc98_0078_4385_838a_fc31f0df8e9c o )  ) ) ( type_bf34e10e_752a_4499_9281_9e5783b974d5_Class33 ( obj_cde6fc98_0078_4385_838a_fc31f0df8e9c o )  ) ) ( type_bf34e10e_752a_4499_9281_9e5783b974d5_Class22 ( obj_cde6fc98_0078_4385_838a_fc31f0df8e9c o )  ) ) ( type_bf34e10e_752a_4499_9281_9e5783b974d5_Class39 ( obj_cde6fc98_0078_4385_838a_fc31f0df8e9c o )  ) ) ( type_bf34e10e_752a_4499_9281_9e5783b974d5_Class41 ( obj_cde6fc98_0078_4385_838a_fc31f0df8e9c o )  ) )):named c22))
(assert (! (exists ((o Int)) (and (and (and ( type_bf34e10e_752a_4499_9281_9e5783b974d5_Class3 ( obj_cde6fc98_0078_4385_838a_fc31f0df8e9c o )  )  ( type_bf34e10e_752a_4499_9281_9e5783b974d5_Class25 ( obj_cde6fc98_0078_4385_838a_fc31f0df8e9c o )  ) ) ( type_bf34e10e_752a_4499_9281_9e5783b974d5_Class24 ( obj_cde6fc98_0078_4385_838a_fc31f0df8e9c o )  ) ) ( type_bf34e10e_752a_4499_9281_9e5783b974d5_Class39 ( obj_cde6fc98_0078_4385_838a_fc31f0df8e9c o )  ) )):named c23))
(assert (! (exists ((o Int)) (and ( type_bf34e10e_752a_4499_9281_9e5783b974d5_Class30 ( obj_cde6fc98_0078_4385_838a_fc31f0df8e9c o )  )  ( type_bf34e10e_752a_4499_9281_9e5783b974d5_Class39 ( obj_cde6fc98_0078_4385_838a_fc31f0df8e9c o )  ) )):named c24))
(assert (! (exists ((o Int)) (and (and (and (and (and ( type_bf34e10e_752a_4499_9281_9e5783b974d5_Class31 ( obj_cde6fc98_0078_4385_838a_fc31f0df8e9c o )  )  ( type_bf34e10e_752a_4499_9281_9e5783b974d5_Class45 ( obj_cde6fc98_0078_4385_838a_fc31f0df8e9c o )  ) ) ( type_bf34e10e_752a_4499_9281_9e5783b974d5_Class12 ( obj_cde6fc98_0078_4385_838a_fc31f0df8e9c o )  ) ) ( type_bf34e10e_752a_4499_9281_9e5783b974d5_Class33 ( obj_cde6fc98_0078_4385_838a_fc31f0df8e9c o )  ) ) ( type_bf34e10e_752a_4499_9281_9e5783b974d5_Class22 ( obj_cde6fc98_0078_4385_838a_fc31f0df8e9c o )  ) ) ( type_bf34e10e_752a_4499_9281_9e5783b974d5_Class39 ( obj_cde6fc98_0078_4385_838a_fc31f0df8e9c o )  ) )):named c25))
(assert (! (exists ((o Int)) ( type_bf34e10e_752a_4499_9281_9e5783b974d5_Class32 ( obj_cde6fc98_0078_4385_838a_fc31f0df8e9c o )  ) ):named c26))
(assert (! (exists ((o Int)) (and (and ( type_bf34e10e_752a_4499_9281_9e5783b974d5_Class33 ( obj_cde6fc98_0078_4385_838a_fc31f0df8e9c o )  )  ( type_bf34e10e_752a_4499_9281_9e5783b974d5_Class22 ( obj_cde6fc98_0078_4385_838a_fc31f0df8e9c o )  ) ) ( type_bf34e10e_752a_4499_9281_9e5783b974d5_Class39 ( obj_cde6fc98_0078_4385_838a_fc31f0df8e9c o )  ) )):named c27))
(assert (! (exists ((o Int)) (and (and (and ( type_bf34e10e_752a_4499_9281_9e5783b974d5_Class34 ( obj_cde6fc98_0078_4385_838a_fc31f0df8e9c o )  )  ( type_bf34e10e_752a_4499_9281_9e5783b974d5_Class25 ( obj_cde6fc98_0078_4385_838a_fc31f0df8e9c o )  ) ) ( type_bf34e10e_752a_4499_9281_9e5783b974d5_Class24 ( obj_cde6fc98_0078_4385_838a_fc31f0df8e9c o )  ) ) ( type_bf34e10e_752a_4499_9281_9e5783b974d5_Class39 ( obj_cde6fc98_0078_4385_838a_fc31f0df8e9c o )  ) )):named c28))
(assert (! (exists ((o Int)) (and (and ( type_bf34e10e_752a_4499_9281_9e5783b974d5_Class35 ( obj_cde6fc98_0078_4385_838a_fc31f0df8e9c o )  )  ( type_bf34e10e_752a_4499_9281_9e5783b974d5_Class39 ( obj_cde6fc98_0078_4385_838a_fc31f0df8e9c o )  ) ) ( type_bf34e10e_752a_4499_9281_9e5783b974d5_Class30 ( obj_cde6fc98_0078_4385_838a_fc31f0df8e9c o )  ) )):named c29))
(assert (! (exists ((o Int)) ( type_bf34e10e_752a_4499_9281_9e5783b974d5_Class36 ( obj_cde6fc98_0078_4385_838a_fc31f0df8e9c o )  ) ):named c30))
(assert (! (exists ((o Int)) ( type_bf34e10e_752a_4499_9281_9e5783b974d5_Class37 ( obj_cde6fc98_0078_4385_838a_fc31f0df8e9c o )  ) ):named c31))
(assert (! (exists ((o Int)) ( type_bf34e10e_752a_4499_9281_9e5783b974d5_Class38 ( obj_cde6fc98_0078_4385_838a_fc31f0df8e9c o )  ) ):named c32))
(assert (! (exists ((o Int)) ( type_bf34e10e_752a_4499_9281_9e5783b974d5_Class39 ( obj_cde6fc98_0078_4385_838a_fc31f0df8e9c o )  ) ):named c33))
(assert (! (exists ((o Int)) ( type_bf34e10e_752a_4499_9281_9e5783b974d5_Class4 ( obj_cde6fc98_0078_4385_838a_fc31f0df8e9c o )  ) ):named c34))
(assert (! (exists ((o Int)) (and (and (and (and (and (and (and (and (and ( type_bf34e10e_752a_4499_9281_9e5783b974d5_Class40 ( obj_cde6fc98_0078_4385_838a_fc31f0df8e9c o )  )  ( type_bf34e10e_752a_4499_9281_9e5783b974d5_Class45 ( obj_cde6fc98_0078_4385_838a_fc31f0df8e9c o )  ) ) ( type_bf34e10e_752a_4499_9281_9e5783b974d5_Class12 ( obj_cde6fc98_0078_4385_838a_fc31f0df8e9c o )  ) ) ( type_bf34e10e_752a_4499_9281_9e5783b974d5_Class55 ( obj_cde6fc98_0078_4385_838a_fc31f0df8e9c o )  ) ) ( type_bf34e10e_752a_4499_9281_9e5783b974d5_Class33 ( obj_cde6fc98_0078_4385_838a_fc31f0df8e9c o )  ) ) ( type_bf34e10e_752a_4499_9281_9e5783b974d5_Class22 ( obj_cde6fc98_0078_4385_838a_fc31f0df8e9c o )  ) ) ( type_bf34e10e_752a_4499_9281_9e5783b974d5_Class29 ( obj_cde6fc98_0078_4385_838a_fc31f0df8e9c o )  ) ) ( type_bf34e10e_752a_4499_9281_9e5783b974d5_Class39 ( obj_cde6fc98_0078_4385_838a_fc31f0df8e9c o )  ) ) ( type_bf34e10e_752a_4499_9281_9e5783b974d5_Class50 ( obj_cde6fc98_0078_4385_838a_fc31f0df8e9c o )  ) ) ( type_bf34e10e_752a_4499_9281_9e5783b974d5_Class41 ( obj_cde6fc98_0078_4385_838a_fc31f0df8e9c o )  ) )):named c35))
(assert (! (exists ((o Int)) (and (and (and (and (and ( type_bf34e10e_752a_4499_9281_9e5783b974d5_Class41 ( obj_cde6fc98_0078_4385_838a_fc31f0df8e9c o )  )  ( type_bf34e10e_752a_4499_9281_9e5783b974d5_Class45 ( obj_cde6fc98_0078_4385_838a_fc31f0df8e9c o )  ) ) ( type_bf34e10e_752a_4499_9281_9e5783b974d5_Class12 ( obj_cde6fc98_0078_4385_838a_fc31f0df8e9c o )  ) ) ( type_bf34e10e_752a_4499_9281_9e5783b974d5_Class33 ( obj_cde6fc98_0078_4385_838a_fc31f0df8e9c o )  ) ) ( type_bf34e10e_752a_4499_9281_9e5783b974d5_Class22 ( obj_cde6fc98_0078_4385_838a_fc31f0df8e9c o )  ) ) ( type_bf34e10e_752a_4499_9281_9e5783b974d5_Class39 ( obj_cde6fc98_0078_4385_838a_fc31f0df8e9c o )  ) )):named c36))
(assert (! (exists ((o Int)) (and ( type_bf34e10e_752a_4499_9281_9e5783b974d5_Class42 ( obj_cde6fc98_0078_4385_838a_fc31f0df8e9c o )  )  ( type_bf34e10e_752a_4499_9281_9e5783b974d5_Class39 ( obj_cde6fc98_0078_4385_838a_fc31f0df8e9c o )  ) )):named c37))
(assert (! (exists ((o Int)) ( type_bf34e10e_752a_4499_9281_9e5783b974d5_Class43 ( obj_cde6fc98_0078_4385_838a_fc31f0df8e9c o )  ) ):named c38))
(assert (! (exists ((o Int)) (and (and (and (and (and (and (and ( type_bf34e10e_752a_4499_9281_9e5783b974d5_Class44 ( obj_cde6fc98_0078_4385_838a_fc31f0df8e9c o )  )  ( type_bf34e10e_752a_4499_9281_9e5783b974d5_Class45 ( obj_cde6fc98_0078_4385_838a_fc31f0df8e9c o )  ) ) ( type_bf34e10e_752a_4499_9281_9e5783b974d5_Class12 ( obj_cde6fc98_0078_4385_838a_fc31f0df8e9c o )  ) ) ( type_bf34e10e_752a_4499_9281_9e5783b974d5_Class33 ( obj_cde6fc98_0078_4385_838a_fc31f0df8e9c o )  ) ) ( type_bf34e10e_752a_4499_9281_9e5783b974d5_Class22 ( obj_cde6fc98_0078_4385_838a_fc31f0df8e9c o )  ) ) ( type_bf34e10e_752a_4499_9281_9e5783b974d5_Class29 ( obj_cde6fc98_0078_4385_838a_fc31f0df8e9c o )  ) ) ( type_bf34e10e_752a_4499_9281_9e5783b974d5_Class39 ( obj_cde6fc98_0078_4385_838a_fc31f0df8e9c o )  ) ) ( type_bf34e10e_752a_4499_9281_9e5783b974d5_Class41 ( obj_cde6fc98_0078_4385_838a_fc31f0df8e9c o )  ) )):named c39))
(assert (! (exists ((o Int)) (and (and (and (and ( type_bf34e10e_752a_4499_9281_9e5783b974d5_Class45 ( obj_cde6fc98_0078_4385_838a_fc31f0df8e9c o )  )  ( type_bf34e10e_752a_4499_9281_9e5783b974d5_Class12 ( obj_cde6fc98_0078_4385_838a_fc31f0df8e9c o )  ) ) ( type_bf34e10e_752a_4499_9281_9e5783b974d5_Class33 ( obj_cde6fc98_0078_4385_838a_fc31f0df8e9c o )  ) ) ( type_bf34e10e_752a_4499_9281_9e5783b974d5_Class22 ( obj_cde6fc98_0078_4385_838a_fc31f0df8e9c o )  ) ) ( type_bf34e10e_752a_4499_9281_9e5783b974d5_Class39 ( obj_cde6fc98_0078_4385_838a_fc31f0df8e9c o )  ) )):named c40))
(assert (! (exists ((o Int)) (and (and ( type_bf34e10e_752a_4499_9281_9e5783b974d5_Class46 ( obj_cde6fc98_0078_4385_838a_fc31f0df8e9c o )  )  ( type_bf34e10e_752a_4499_9281_9e5783b974d5_Class39 ( obj_cde6fc98_0078_4385_838a_fc31f0df8e9c o )  ) ) ( type_bf34e10e_752a_4499_9281_9e5783b974d5_Class5 ( obj_cde6fc98_0078_4385_838a_fc31f0df8e9c o )  ) )):named c41))
(assert (! (exists ((o Int)) ( type_bf34e10e_752a_4499_9281_9e5783b974d5_Class47 ( obj_cde6fc98_0078_4385_838a_fc31f0df8e9c o )  ) ):named c42))
(assert (! (exists ((o Int)) (and (and (and (and (and (and (and (and (and ( type_bf34e10e_752a_4499_9281_9e5783b974d5_Class48 ( obj_cde6fc98_0078_4385_838a_fc31f0df8e9c o )  )  ( type_bf34e10e_752a_4499_9281_9e5783b974d5_Class45 ( obj_cde6fc98_0078_4385_838a_fc31f0df8e9c o )  ) ) ( type_bf34e10e_752a_4499_9281_9e5783b974d5_Class12 ( obj_cde6fc98_0078_4385_838a_fc31f0df8e9c o )  ) ) ( type_bf34e10e_752a_4499_9281_9e5783b974d5_Class55 ( obj_cde6fc98_0078_4385_838a_fc31f0df8e9c o )  ) ) ( type_bf34e10e_752a_4499_9281_9e5783b974d5_Class33 ( obj_cde6fc98_0078_4385_838a_fc31f0df8e9c o )  ) ) ( type_bf34e10e_752a_4499_9281_9e5783b974d5_Class22 ( obj_cde6fc98_0078_4385_838a_fc31f0df8e9c o )  ) ) ( type_bf34e10e_752a_4499_9281_9e5783b974d5_Class29 ( obj_cde6fc98_0078_4385_838a_fc31f0df8e9c o )  ) ) ( type_bf34e10e_752a_4499_9281_9e5783b974d5_Class39 ( obj_cde6fc98_0078_4385_838a_fc31f0df8e9c o )  ) ) ( type_bf34e10e_752a_4499_9281_9e5783b974d5_Class50 ( obj_cde6fc98_0078_4385_838a_fc31f0df8e9c o )  ) ) ( type_bf34e10e_752a_4499_9281_9e5783b974d5_Class41 ( obj_cde6fc98_0078_4385_838a_fc31f0df8e9c o )  ) )):named c43))
(assert (! (exists ((o Int)) (and (and (and (and (and (and (and (and (and ( type_bf34e10e_752a_4499_9281_9e5783b974d5_Class49 ( obj_cde6fc98_0078_4385_838a_fc31f0df8e9c o )  )  ( type_bf34e10e_752a_4499_9281_9e5783b974d5_Class45 ( obj_cde6fc98_0078_4385_838a_fc31f0df8e9c o )  ) ) ( type_bf34e10e_752a_4499_9281_9e5783b974d5_Class12 ( obj_cde6fc98_0078_4385_838a_fc31f0df8e9c o )  ) ) ( type_bf34e10e_752a_4499_9281_9e5783b974d5_Class55 ( obj_cde6fc98_0078_4385_838a_fc31f0df8e9c o )  ) ) ( type_bf34e10e_752a_4499_9281_9e5783b974d5_Class33 ( obj_cde6fc98_0078_4385_838a_fc31f0df8e9c o )  ) ) ( type_bf34e10e_752a_4499_9281_9e5783b974d5_Class22 ( obj_cde6fc98_0078_4385_838a_fc31f0df8e9c o )  ) ) ( type_bf34e10e_752a_4499_9281_9e5783b974d5_Class29 ( obj_cde6fc98_0078_4385_838a_fc31f0df8e9c o )  ) ) ( type_bf34e10e_752a_4499_9281_9e5783b974d5_Class39 ( obj_cde6fc98_0078_4385_838a_fc31f0df8e9c o )  ) ) ( type_bf34e10e_752a_4499_9281_9e5783b974d5_Class50 ( obj_cde6fc98_0078_4385_838a_fc31f0df8e9c o )  ) ) ( type_bf34e10e_752a_4499_9281_9e5783b974d5_Class41 ( obj_cde6fc98_0078_4385_838a_fc31f0df8e9c o )  ) )):named c44))
(assert (! (exists ((o Int)) (and ( type_bf34e10e_752a_4499_9281_9e5783b974d5_Class5 ( obj_cde6fc98_0078_4385_838a_fc31f0df8e9c o )  )  ( type_bf34e10e_752a_4499_9281_9e5783b974d5_Class39 ( obj_cde6fc98_0078_4385_838a_fc31f0df8e9c o )  ) )):named c45))
(assert (! (exists ((o Int)) (and (and (and (and (and (and (and (and ( type_bf34e10e_752a_4499_9281_9e5783b974d5_Class50 ( obj_cde6fc98_0078_4385_838a_fc31f0df8e9c o )  )  ( type_bf34e10e_752a_4499_9281_9e5783b974d5_Class45 ( obj_cde6fc98_0078_4385_838a_fc31f0df8e9c o )  ) ) ( type_bf34e10e_752a_4499_9281_9e5783b974d5_Class12 ( obj_cde6fc98_0078_4385_838a_fc31f0df8e9c o )  ) ) ( type_bf34e10e_752a_4499_9281_9e5783b974d5_Class55 ( obj_cde6fc98_0078_4385_838a_fc31f0df8e9c o )  ) ) ( type_bf34e10e_752a_4499_9281_9e5783b974d5_Class33 ( obj_cde6fc98_0078_4385_838a_fc31f0df8e9c o )  ) ) ( type_bf34e10e_752a_4499_9281_9e5783b974d5_Class22 ( obj_cde6fc98_0078_4385_838a_fc31f0df8e9c o )  ) ) ( type_bf34e10e_752a_4499_9281_9e5783b974d5_Class29 ( obj_cde6fc98_0078_4385_838a_fc31f0df8e9c o )  ) ) ( type_bf34e10e_752a_4499_9281_9e5783b974d5_Class39 ( obj_cde6fc98_0078_4385_838a_fc31f0df8e9c o )  ) ) ( type_bf34e10e_752a_4499_9281_9e5783b974d5_Class41 ( obj_cde6fc98_0078_4385_838a_fc31f0df8e9c o )  ) )):named c46))
(assert (! (exists ((o Int)) (and (and (and (and (and (and ( type_bf34e10e_752a_4499_9281_9e5783b974d5_Class51 ( obj_cde6fc98_0078_4385_838a_fc31f0df8e9c o )  )  ( type_bf34e10e_752a_4499_9281_9e5783b974d5_Class45 ( obj_cde6fc98_0078_4385_838a_fc31f0df8e9c o )  ) ) ( type_bf34e10e_752a_4499_9281_9e5783b974d5_Class12 ( obj_cde6fc98_0078_4385_838a_fc31f0df8e9c o )  ) ) ( type_bf34e10e_752a_4499_9281_9e5783b974d5_Class33 ( obj_cde6fc98_0078_4385_838a_fc31f0df8e9c o )  ) ) ( type_bf34e10e_752a_4499_9281_9e5783b974d5_Class22 ( obj_cde6fc98_0078_4385_838a_fc31f0df8e9c o )  ) ) ( type_bf34e10e_752a_4499_9281_9e5783b974d5_Class16 ( obj_cde6fc98_0078_4385_838a_fc31f0df8e9c o )  ) ) ( type_bf34e10e_752a_4499_9281_9e5783b974d5_Class39 ( obj_cde6fc98_0078_4385_838a_fc31f0df8e9c o )  ) )):named c47))
(assert (! (exists ((o Int)) (and (and (and (and (and ( type_bf34e10e_752a_4499_9281_9e5783b974d5_Class52 ( obj_cde6fc98_0078_4385_838a_fc31f0df8e9c o )  )  ( type_bf34e10e_752a_4499_9281_9e5783b974d5_Class45 ( obj_cde6fc98_0078_4385_838a_fc31f0df8e9c o )  ) ) ( type_bf34e10e_752a_4499_9281_9e5783b974d5_Class12 ( obj_cde6fc98_0078_4385_838a_fc31f0df8e9c o )  ) ) ( type_bf34e10e_752a_4499_9281_9e5783b974d5_Class33 ( obj_cde6fc98_0078_4385_838a_fc31f0df8e9c o )  ) ) ( type_bf34e10e_752a_4499_9281_9e5783b974d5_Class22 ( obj_cde6fc98_0078_4385_838a_fc31f0df8e9c o )  ) ) ( type_bf34e10e_752a_4499_9281_9e5783b974d5_Class39 ( obj_cde6fc98_0078_4385_838a_fc31f0df8e9c o )  ) )):named c48))
(assert (! (exists ((o Int)) ( type_bf34e10e_752a_4499_9281_9e5783b974d5_Class53 ( obj_cde6fc98_0078_4385_838a_fc31f0df8e9c o )  ) ):named c49))
(assert (! (exists ((o Int)) ( type_bf34e10e_752a_4499_9281_9e5783b974d5_Class54 ( obj_cde6fc98_0078_4385_838a_fc31f0df8e9c o )  ) ):named c50))
(assert (! (exists ((o Int)) (and (and (and (and (and (and (and ( type_bf34e10e_752a_4499_9281_9e5783b974d5_Class55 ( obj_cde6fc98_0078_4385_838a_fc31f0df8e9c o )  )  ( type_bf34e10e_752a_4499_9281_9e5783b974d5_Class45 ( obj_cde6fc98_0078_4385_838a_fc31f0df8e9c o )  ) ) ( type_bf34e10e_752a_4499_9281_9e5783b974d5_Class12 ( obj_cde6fc98_0078_4385_838a_fc31f0df8e9c o )  ) ) ( type_bf34e10e_752a_4499_9281_9e5783b974d5_Class33 ( obj_cde6fc98_0078_4385_838a_fc31f0df8e9c o )  ) ) ( type_bf34e10e_752a_4499_9281_9e5783b974d5_Class22 ( obj_cde6fc98_0078_4385_838a_fc31f0df8e9c o )  ) ) ( type_bf34e10e_752a_4499_9281_9e5783b974d5_Class29 ( obj_cde6fc98_0078_4385_838a_fc31f0df8e9c o )  ) ) ( type_bf34e10e_752a_4499_9281_9e5783b974d5_Class39 ( obj_cde6fc98_0078_4385_838a_fc31f0df8e9c o )  ) ) ( type_bf34e10e_752a_4499_9281_9e5783b974d5_Class41 ( obj_cde6fc98_0078_4385_838a_fc31f0df8e9c o )  ) )):named c51))
(assert (! (exists ((o Int)) ( type_bf34e10e_752a_4499_9281_9e5783b974d5_Class6 ( obj_cde6fc98_0078_4385_838a_fc31f0df8e9c o )  ) ):named c52))
(assert (! (exists ((o Int)) (and (and (and (and (and (and (and (and (and ( type_bf34e10e_752a_4499_9281_9e5783b974d5_Class7 ( obj_cde6fc98_0078_4385_838a_fc31f0df8e9c o )  )  ( type_bf34e10e_752a_4499_9281_9e5783b974d5_Class45 ( obj_cde6fc98_0078_4385_838a_fc31f0df8e9c o )  ) ) ( type_bf34e10e_752a_4499_9281_9e5783b974d5_Class12 ( obj_cde6fc98_0078_4385_838a_fc31f0df8e9c o )  ) ) ( type_bf34e10e_752a_4499_9281_9e5783b974d5_Class55 ( obj_cde6fc98_0078_4385_838a_fc31f0df8e9c o )  ) ) ( type_bf34e10e_752a_4499_9281_9e5783b974d5_Class33 ( obj_cde6fc98_0078_4385_838a_fc31f0df8e9c o )  ) ) ( type_bf34e10e_752a_4499_9281_9e5783b974d5_Class22 ( obj_cde6fc98_0078_4385_838a_fc31f0df8e9c o )  ) ) ( type_bf34e10e_752a_4499_9281_9e5783b974d5_Class29 ( obj_cde6fc98_0078_4385_838a_fc31f0df8e9c o )  ) ) ( type_bf34e10e_752a_4499_9281_9e5783b974d5_Class39 ( obj_cde6fc98_0078_4385_838a_fc31f0df8e9c o )  ) ) ( type_bf34e10e_752a_4499_9281_9e5783b974d5_Class50 ( obj_cde6fc98_0078_4385_838a_fc31f0df8e9c o )  ) ) ( type_bf34e10e_752a_4499_9281_9e5783b974d5_Class41 ( obj_cde6fc98_0078_4385_838a_fc31f0df8e9c o )  ) )):named c53))
(assert (! (exists ((o Int)) (and ( type_bf34e10e_752a_4499_9281_9e5783b974d5_Class8 ( obj_cde6fc98_0078_4385_838a_fc31f0df8e9c o )  )  ( type_bf34e10e_752a_4499_9281_9e5783b974d5_Class39 ( obj_cde6fc98_0078_4385_838a_fc31f0df8e9c o )  ) )):named c54))
(assert (! (exists ((o Int)) ( type_bf34e10e_752a_4499_9281_9e5783b974d5_Class9 ( obj_cde6fc98_0078_4385_838a_fc31f0df8e9c o )  ) ):named c55))

 ;end of formula 